     Program PHONON v.6.6 starts on  4Dec2023 at  5:19:21

     Fft bands division:     nmany     =       1

     Reading xml data from directory:

     /Users/virgrammid/Desktop/Lab_7/tmp/si.save/

     IMPORTANT: XC functional enforced from input :
     Exchange-correlation= PBE
                           (   1   4   3   4   0   0   0)
     Any further DFT definition will be discarded
     Please, verify this is what you really want

     Reading collected, re-writing distributed wavefunctions
        3 /   3 q-points for this run, from  1 to  3:
       N       xq(1)         xq(2)         xq(3)
       1   0.000000000   0.000000000   0.000000000
       2   0.500000000  -0.500000000   0.500000000
       3   0.000000000  -1.000000000   0.000000000

     Calculation of q =    0.0000000   0.0000000   0.0000000

     phonons of Si

     bravais-lattice index     =            2
     lattice parameter (alat)  =      10.3270  a.u.
     unit-cell volume          =     275.3357 (a.u.)^3
     number of atoms/cell      =            2
     number of atomic types    =            1
     kinetic-energy cut-off    =      30.0000  Ry
     charge density cut-off    =     120.0000  Ry
     convergence threshold     =      1.0E-12
     beta                      =       0.7000
     number of iterations used =            4
     Exchange-correlation= PBE
                           (   1   4   3   4   0   0   0)

     celldm(1)=   10.32700  celldm(2)=    0.00000  celldm(3)=    0.00000
     celldm(4)=    0.00000  celldm(5)=    0.00000  celldm(6)=    0.00000

     crystal axes: (cart. coord. in units of alat)
               a(1) = ( -0.5000  0.0000  0.5000 )
               a(2) = (  0.0000  0.5000  0.5000 )
               a(3) = ( -0.5000  0.5000  0.0000 )

     reciprocal axes: (cart. coord. in units 2 pi/alat)
               b(1) = ( -1.0000 -1.0000  1.0000 )
               b(2) = (  1.0000  1.0000  1.0000 )
               b(3) = ( -1.0000  1.0000 -1.0000 )

     Atoms inside the unit cell:

     Cartesian axes

     site n.  atom      mass           positions (alat units)
        1     Si  28.0860   tau(    1) = (    0.00000    0.00000    0.00000  )
        2     Si  28.0860   tau(    2) = (    0.25000    0.25000    0.25000  )

     Computing dynamical matrix for
                    q = (   0.0000000   0.0000000   0.0000000 )

     49 Sym.Ops. (with q -> -q+G )

     G cutoff =  324.1678  (   6183 G-vectors)     FFT grid: ( 32, 32, 32)
     number of k points=   897

     PseudoPot. # 1 for Si read from file:
     /Users/virgrammid/Desktop/Lab_7/pseudo/Si.rel-pbe-rrkj.UPF
     MD5 check sum: ca11b4d55ae68281b492616f935c6016
     Pseudo is Norm-conserving, Zval =  4.0
     Generated by new atomic code, or converted to UPF format
     Using radial grid of 1141 points,  2 beta functions with:
                l(1) =   0
                l(2) =   1

     Mode symmetry, O_h (m-3m)  point group:

     Electric field:
     Dielectric constant
     Born effective charges in two ways

     Atomic displacements:
     There are    2 irreducible representations

     Representation     1      3 modes -  Done

     Representation     2      3 modes -  Done

          Dielectric constant in cartesian axis

          (      13.004792969       0.000000000       0.000000000 )
          (       0.000000000      13.004792969       0.000000000 )
          (       0.000000000       0.000000000      13.004792969 )

          Effective charges (d Force / dE) in cartesian axis

           atom      1   Si
      Ex  (        0.00012        0.00000        0.00000 )
      Ey  (        0.00000        0.00012       -0.00000 )
      Ez  (        0.00000       -0.00000        0.00012 )
           atom      2   Si
      Ex  (        0.00012       -0.00000       -0.00000 )
      Ey  (       -0.00000        0.00012        0.00000 )
      Ez  (       -0.00000        0.00000        0.00012 )

     Number of q in the star =    1
     List of q in the star:
          1   0.000000000   0.000000000   0.000000000

          Dielectric constant in cartesian axis

          (      13.004792969       0.000000000       0.000000000 )
          (       0.000000000      13.004792969       0.000000000 )
          (       0.000000000       0.000000000      13.004792969 )

          Effective charges (d Force / dE) in cartesian axis

[...]

          Effective charges (d P / du) in cartesian axis

           atom      1   Si
      Px  (        0.00226       -0.00000        0.00000 )
      Py  (       -0.00000        0.00226        0.00000 )
      Pz  (        0.00000        0.00000        0.00226 )
           atom      2   Si
      Px  (        0.00226       -0.00000        0.00000 )
      Py  (       -0.00000        0.00226       -0.00000 )
      Pz  (        0.00000        0.00000        0.00226 )

     Diagonalizing the dynamical matrix

     q = (    0.000000000   0.000000000   0.000000000 )

     freq (    1) =       0.474288 [THz] =      15.820537 [cm-1]
     freq (    2) =       0.474288 [THz] =      15.820537 [cm-1]
     freq (    3) =       0.474288 [THz] =      15.820537 [cm-1]
     freq (    4) =      15.029751 [THz] =     501.338537 [cm-1]
     freq (    5) =      15.029751 [THz] =     501.338537 [cm-1]
     freq (    6) =      15.029751 [THz] =     501.338537 [cm-1]

     Mode symmetry, O_h (m-3m)  point group:

     freq (   1-   3) =         15.8  [cm-1]   --> T_1u G_15  G_4- I
     freq (   4-   6) =        501.3  [cm-1]   --> T_2g G_25' G_5+ R

[...]

     Subspace diagonalization in iterative solution of the eigenvalue problem:
     a serial algorithm will be used

     Title:
     phonons of Si

     bravais-lattice index     =            2
     lattice parameter (alat)  =      10.3270  a.u.
     unit-cell volume          =     275.3357 (a.u.)^3
     number of atoms/cell      =            2
     number of atomic types    =            1
     number of electrons       =         8.00
     number of Kohn-Sham states=            8
     kinetic-energy cutoff     =      30.0000  Ry
     charge density cutoff     =     120.0000  Ry
     Exchange-correlation= PBE
                           (   1   4   3   4   0   0   0)

[...]

     atomic species   valence    mass     pseudopotential
        Si             4.00    28.08600     Si( 1.00)

     48 Sym. Ops., with inversion, found

[...]

     site n.     atom                  positions (alat units)
         1           Si  tau(   1) = (   0.0000000   0.0000000   0.0000000  )
         2           Si  tau(   2) = (   0.2500000   0.2500000   0.2500000  )

     number of k points=  6018

     Number of k-points >= 100: set verbosity='high' to print them.

     The potential is recalculated from file :
     /Users/virgrammid/Desktop/Lab_7/tmp/_ph0/si.save/charge-density

     Starting wfcs are    8 atomic wfcs

     Band Structure Calculation
     Davidson diagonalization with overlap

     ethr =  1.25E-10,  avg # of iterations = 18.5

     End of band structure calculation

     Number of k-points >= 100: set verbosity='high' to print the bands.

     highest occupied, lowest unoccupied level (ev):     6.0361    6.6512

     Writing output data file /Users/virgrammid/Desktop/Lab_7/tmp/_ph0/si.save/

[...]

     Representation     1      1 modes -  To be done

[...]

     Alpha used in Ewald sum =   1.3000

     Representation #   1 mode #   1

     Self-consistent Calculation

      thresh= 1.000E-02 alpha_mix =  0.700 |ddv_scf|^2 =  5.494E-06

[...]

     End of self-consistent calculation

     Convergence has been achieved

     Representation #   2 mode #   2

[...]

     Representation #   3 modes #   3   4

[...]

     Calculation of q =    0.0000000  -1.0000000   0.0000000

     Title:
     phonons of Si

     bravais-lattice index     =            2
     lattice parameter (alat)  =      10.3270  a.u.
     unit-cell volume          =     275.3357 (a.u.)^3
     number of atoms/cell      =            2
     number of atomic types    =            1
     number of electrons       =         8.00
     number of Kohn-Sham states=            8
     kinetic-energy cutoff     =      30.0000  Ry
     charge density cutoff     =     120.0000  Ry
     Exchange-correlation= PBE
                           (   1   4   3   4   0   0   0)

[...]

     atomic species   valence    mass     pseudopotential
        Si             4.00    28.08600     Si( 1.00)

     48 Sym. Ops., with inversion, found

[...]

     site n.     atom                  positions (alat units)
         1           Si  tau(   1) = (   0.0000000   0.0000000   0.0000000  )
         2           Si  tau(   2) = (   0.2500000   0.2500000   0.2500000  )

     number of k points=  4786

     Number of k-points >= 100: set verbosity='high' to print them.

     The potential is recalculated from file :
     /Users/virgrammid/Desktop/Lab_7/tmp/_ph0/si.save/charge-density

     Starting wfcs are    8 atomic wfcs

     Band Structure Calculation
     Davidson diagonalization with overlap

     ethr =  1.25E-10,  avg # of iterations = 18.4

     End of band structure calculation

     Number of k-points >= 100: set verbosity='high' to print the bands.

     highest occupied, lowest unoccupied level (ev):     6.0361    6.6512

     Writing output data file /Users/virgrammid/Desktop/Lab_7/tmp/_ph0/si.save/

     phonons of Si

     bravais-lattice index     =            2
     lattice parameter (alat)  =      10.3270  a.u.
     unit-cell volume          =     275.3357 (a.u.)^3
     number of atoms/cell      =            2
     number of atomic types    =            1
     kinetic-energy cut-off    =      30.0000  Ry
     charge density cut-off    =     120.0000  Ry
     convergence threshold     =      1.0E-12
     beta                      =       0.7000
     number of iterations used =            4
     Exchange-correlation= PBE
                           (   1   4   3   4   0   0   0)

     celldm(1)=   10.32700  celldm(2)=    0.00000  celldm(3)=    0.00000
     celldm(4)=    0.00000  celldm(5)=    0.00000  celldm(6)=    0.00000

     crystal axes: (cart. coord. in units of alat)
               a(1) = ( -0.5000  0.0000  0.5000 )
               a(2) = (  0.0000  0.5000  0.5000 )
               a(3) = ( -0.5000  0.5000  0.0000 )

     reciprocal axes: (cart. coord. in units 2 pi/alat)
               b(1) = ( -1.0000 -1.0000  1.0000 )
               b(2) = (  1.0000  1.0000  1.0000 )
               b(3) = ( -1.0000  1.0000 -1.0000 )

     Atoms inside the unit cell:

     Cartesian axes

     site n.  atom      mass           positions (alat units)
        1     Si  28.0860   tau(    1) = (    0.00000    0.00000    0.00000  )
        2     Si  28.0860   tau(    2) = (    0.25000    0.25000    0.25000  )

     Computing dynamical matrix for
                    q = (   0.0000000  -1.0000000   0.0000000 )

     17 Sym.Ops. (with q -> -q+G )

     G cutoff =  324.1678  (   6183 G-vectors)     FFT grid: ( 32, 32, 32)
     number of k points=  4786

     PseudoPot. # 1 for Si read from file:
     /Users/virgrammid/Desktop/Lab_7/pseudo/Si.rel-pbe-rrkj.UPF
     MD5 check sum: ca11b4d55ae68281b492616f935c6016
     Pseudo is Norm-conserving, Zval =  4.0
     Generated by new atomic code, or converted to UPF format
     Using radial grid of 1141 points,  2 beta functions with:
                l(1) =   0
                l(2) =   1

     Atomic displacements:
     There are    3 irreducible representations

[...]

     Representation     3      2 modes -  To be done

     Alpha used in Ewald sum =   1.3000

[...]

     Representation #   3 modes #   5   6

     Self-consistent Calculation

[...]

      thresh= 3.172E-07 alpha_mix =  0.700 |ddv_scf|^2 =  2.489E-14

     End of self-consistent calculation

     Convergence has been achieved

     Number of q in the star =    3
     List of q in the star:
          1   0.000000000  -1.000000000   0.000000000
          2  -1.000000000   0.000000000   0.000000000
          3   0.000000000   0.000000000   1.000000000

     Diagonalizing the dynamical matrix

     q = (    0.000000000  -1.000000000   0.000000000 )

     freq (    1) =       4.410114 [THz] =     147.105578 [cm-1]
     freq (    2) =       4.410114 [THz] =     147.105578 [cm-1]
     freq (    3) =      11.995772 [THz] =     400.135875 [cm-1]
     freq (    4) =      11.995772 [THz] =     400.135875 [cm-1]
     freq (    5) =      13.342468 [THz] =     445.056818 [cm-1]
     freq (    6) =      13.342468 [THz] =     445.056818 [cm-1]

     General routines

     Parallel routines

     INITIALIZATION:

     DYNAMICAL MATRIX:

      General routines

   This run was terminated on:   6:41:25   4Dec2023

   JOB DONE.